% Generated FlatZinc statistics:
%%%mzn-stat: paths=0
%%%mzn-stat: flatBoolVars=230
%%%mzn-stat: flatIntVars=3200
%%%mzn-stat: flatIntConstraints=6116
%%%mzn-stat: evaluatedReifiedConstraints=2038
%%%mzn-stat: evaluatedHalfReifiedConstraints=560
%%%mzn-stat: method="minimize"
%%%mzn-stat: flatTime=0.303886
%%%mzn-stat-end
%%%mzn-stat: objective=2785
%%%mzn-stat: objectiveBound=2785
%%%mzn-stat: nodes=1460
%%%mzn-stat: solveTime=21.0366
%%%mzn-stat-end
end = 32
carga_por_operario = [29, 29, 28]
desbalance = 1
Job 1:  1(op:1)  2(op:2)  6(op:2) 14(op:3) 19(op:2)
Job 2: 17(op:1) 20(op:1) 22(op:1) 29(op:2) 30(op:2)
Job 3:  9(op:1) 13(op:1) 17(op:3) 21(op:3) 25(op:3)
Job 4:  0(op:1)  1(op:2)  2(op:3)  3(op:3) 11(op:2)
Job 5:  2(op:1)  9(op:3) 12(op:3) 26(op:2) 29(op:3)
----------
==========
%%%mzn-stat: objective=2785
%%%mzn-stat: objectiveBound=2785
%%%mzn-stat: nodes=1460
%%%mzn-stat: solveTime=21.0366
%%%mzn-stat-end
%%%mzn-stat: nSolutions=1
%%%mzn-stat-end
